c
c start with comments
c
p cnf 33 24
20 16 -29 20 14 0
-16 13 0
-35 -21 0
-10 -33 15 0
-2 33 -29 -13 0
25 7 -13 0
35 -8 2 0
-3 29 0
7 16 11 31 0
-17 -11 0
-26 -31 11 0
23 32 5 0
-20 -32 0
33 -25 -24 0
28 12 0
-4 26 0
-12 -8 3 0
-27 -7 0
-30 17 -34 3 0
-22 -9 -29 32 -30 0
24 -5 0
-26 20 23 0
8 -19 0
-10 2 -6 -9 0